NAME : tsp_326_sol.txt
COMMENT : OR-Tools Guided Local Search
TYPE : TOUR
DIMENSION : 50
COST : 5781
STATUS : ROUTING_SUCCESS
GAP : 0.00% (Reference Solution)
TOUR_SECTION
1
19
20
3
8
6
17
30
43
27
36
21
28
48
39
23
11
49
34
37
9
26
35
15
33
12
22
2
50
44
13
7
38
47
45
29
32
16
46
18
31
4
14
42
10
41
40
24
25
5
-1
